maximize
0.25011152026V(24,1) + 0.548365425458V(24,0) + 0.201523054282V(24,20)
subject to
V(11,1) - 1F(11,1) - 0F(11,0) - 0F(11,20) - V(16,1) <= 0
V(11,0) - 0F(11,1) - 1F(11,0) - 0F(11,20) - V(16,0) <= 0
V(11,20) - 0F(11,1) - 0F(11,0) - 1F(11,20) - V(16,20) <= 0
V(10,1) - 1F(10,1) - 0F(10,0) - 0F(10,20) - V(11,1) <= 0
V(10,0) - 0F(10,1) - 1F(10,0) - 0F(10,20) - V(11,0) <= 0
V(10,20) - 0F(10,1) - 0F(10,0) - 1F(10,20) - V(11,20) <= 0
V(13,1) - 1F(13,1) - 0F(13,0) - 0F(13,20) - V(8,1) <= 0
V(13,0) - 0F(13,1) - 1F(13,0) - 0F(13,20) - V(8,0) <= 0
V(13,20) - 0F(13,1) - 0F(13,0) - 1F(13,20) - V(8,20) <= 0
V(21,1) - 1F(21,1) - 0F(21,0) - 0F(21,20) - V(16,1) <= 0
V(21,0) - 0F(21,1) - 1F(21,0) - 0F(21,20) - V(16,0) <= 0
V(21,20) - 0F(21,1) - 0F(21,0) - 1F(21,20) - V(16,20) <= 0
V(5,1) - 1F(5,1) - 0F(5,0) - 0F(5,20) - V(6,1) <= 0
V(5,0) - 0F(5,1) - 1F(5,0) - 0F(5,20) - V(6,0) <= 0
V(5,20) - 0F(5,1) - 0F(5,0) - 1F(5,20) - V(6,20) <= 0
V(16,1) - 1F(16,1) - 0F(16,0) - 0F(16,20) - V(21,1) <= 0
V(16,0) - 0F(16,1) - 1F(16,0) - 0F(16,20) - V(21,0) <= 0
V(16,20) - 0F(16,1) - 0F(16,0) - 1F(16,20) - V(21,20) <= 0
V(9,1) - 1F(9,1) - 0F(9,0) - 0F(9,20) - V(8,1) <= 0
V(9,0) - 0F(9,1) - 1F(9,0) - 0F(9,20) - V(8,0) <= 0
V(9,20) - 0F(9,1) - 0F(9,0) - 1F(9,20) - V(8,20) <= 0
V(9,1) - 1F(9,1) - 0F(9,0) - 0F(9,20) - V(14,1) <= 0
V(9,0) - 0F(9,1) - 1F(9,0) - 0F(9,20) - V(14,0) <= 0
V(9,20) - 0F(9,1) - 0F(9,0) - 1F(9,20) - V(14,20) <= 0
V(18,1) - 1F(18,1) - 0F(18,0) - 0F(18,20) - V(13,1) <= 0
V(18,0) - 0F(18,1) - 1F(18,0) - 0F(18,20) - V(13,0) <= 0
V(18,20) - 0F(18,1) - 0F(18,0) - 1F(18,20) - V(13,20) <= 0
V(2,1) - 1F(2,1) - 0F(2,0) - 0F(2,20) - V(1,1) <= 0
V(2,0) - 0F(2,1) - 1F(2,0) - 0F(2,20) - V(1,0) <= 0
V(2,20) - 0F(2,1) - 0F(2,0) - 1F(2,20) - V(1,20) <= 0
V(8,1) - 1F(8,1) - 0F(8,0) - 0F(8,20) - V(9,1) <= 0
V(8,0) - 0F(8,1) - 1F(8,0) - 0F(8,20) - V(9,0) <= 0
V(8,20) - 0F(8,1) - 0F(8,0) - 1F(8,20) - V(9,20) <= 0
V(7,1) - 1F(7,1) - 0F(7,0) - 0F(7,20) - V(12,1) <= 0
V(7,0) - 0F(7,1) - 1F(7,0) - 0F(7,20) - V(12,0) <= 0
V(7,20) - 0F(7,1) - 0F(7,0) - 1F(7,20) - V(12,20) <= 0
V(18,1) - 1F(18,1) - 0F(18,0) - 0F(18,20) - V(19,1) <= 0
V(18,0) - 0F(18,1) - 1F(18,0) - 0F(18,20) - V(19,0) <= 0
V(18,20) - 0F(18,1) - 0F(18,0) - 1F(18,20) - V(19,20) <= 0
V(5,1) - 1F(5,1) - 0F(5,0) - 0F(5,20) - V(10,1) <= 0
V(5,0) - 0F(5,1) - 1F(5,0) - 0F(5,20) - V(10,0) <= 0
V(5,20) - 0F(5,1) - 0F(5,0) - 1F(5,20) - V(10,20) <= 0
V(9,1) - 1F(9,1) - 0F(9,0) - 0F(9,20) - V(4,1) <= 0
V(9,0) - 0F(9,1) - 1F(9,0) - 0F(9,20) - V(4,0) <= 0
V(9,20) - 0F(9,1) - 0F(9,0) - 1F(9,20) - V(4,20) <= 0
V(23,1) - 1F(23,1) - 0F(23,0) - 0F(23,20) - V(22,1) <= 0
V(23,0) - 0F(23,1) - 1F(23,0) - 0F(23,20) - V(22,0) <= 0
V(23,20) - 0F(23,1) - 0F(23,0) - 1F(23,20) - V(22,20) <= 0
V(24,1) - 1F(24,1) - 0F(24,0) - 0F(24,20) - V(19,1) <= 0
V(24,0) - 0F(24,1) - 1F(24,0) - 0F(24,20) - V(19,0) <= 0
V(24,20) - 0F(24,1) - 0F(24,0) - 1F(24,20) - V(19,20) <= 0
V(22,1) - 1F(22,1) - 0F(22,0) - 0F(22,20) - V(23,1) <= 0
V(22,0) - 0F(22,1) - 1F(22,0) - 0F(22,20) - V(23,0) <= 0
V(22,20) - 0F(22,1) - 0F(22,0) - 1F(22,20) - V(23,20) <= 0
V(14,1) - 1F(14,1) - 0F(14,0) - 0F(14,20) - V(9,1) <= 0
V(14,0) - 0F(14,1) - 1F(14,0) - 0F(14,20) - V(9,0) <= 0
V(14,20) - 0F(14,1) - 0F(14,0) - 1F(14,20) - V(9,20) <= 0
V(17,1) - 1F(17,1) - 0F(17,0) - 0F(17,20) - V(22,1) <= 0
V(17,0) - 0F(17,1) - 1F(17,0) - 0F(17,20) - V(22,0) <= 0
V(17,20) - 0F(17,1) - 0F(17,0) - 1F(17,20) - V(22,20) <= 0
V(17,1) - 1F(17,1) - 0F(17,0) - 0F(17,20) - V(16,1) <= 0
V(17,0) - 0F(17,1) - 1F(17,0) - 0F(17,20) - V(16,0) <= 0
V(17,20) - 0F(17,1) - 0F(17,0) - 1F(17,20) - V(16,20) <= 0
V(7,1) - 1F(7,1) - 0F(7,0) - 0F(7,20) - V(2,1) <= 0
V(7,0) - 0F(7,1) - 1F(7,0) - 0F(7,20) - V(2,0) <= 0
V(7,20) - 0F(7,1) - 0F(7,0) - 1F(7,20) - V(2,20) <= 0
V(1,1) = 0
V(1,0) - 0F(1,1) - 1F(1,0) - 0F(1,20) - V(2,0) <= 0
V(1,20) - 0F(1,1) - 0F(1,0) - 1F(1,20) - V(2,20) <= 0
V(11,1) - 1F(11,1) - 0F(11,0) - 0F(11,20) - V(10,1) <= 0
V(11,0) - 0F(11,1) - 1F(11,0) - 0F(11,20) - V(10,0) <= 0
V(11,20) - 0F(11,1) - 0F(11,0) - 1F(11,20) - V(10,20) <= 0
V(6,1) - 1F(6,1) - 0F(6,0) - 0F(6,20) - V(7,1) <= 0
V(6,0) - 0F(6,1) - 1F(6,0) - 0F(6,20) - V(7,0) <= 0
V(6,20) - 0F(6,1) - 0F(6,0) - 1F(6,20) - V(7,20) <= 0
V(21,1) - 1F(21,1) - 0F(21,0) - 0F(21,20) - V(20,1) <= 0
V(21,0) - 0F(21,1) - 1F(21,0) - 0F(21,20) - V(20,0) <= 0
V(21,20) - 0F(21,1) - 0F(21,0) - 1F(21,20) - V(20,20) <= 0
V(24,1) - 1F(24,1) - 0F(24,0) - 0F(24,20) - V(23,1) <= 0
V(24,0) - 0F(24,1) - 1F(24,0) - 0F(24,20) - V(23,0) <= 0
V(24,20) - 0F(24,1) - 0F(24,0) - 1F(24,20) - V(23,20) <= 0
V(12,1) - 1F(12,1) - 0F(12,0) - 0F(12,20) - V(13,1) <= 0
V(12,0) - 0F(12,1) - 1F(12,0) - 0F(12,20) - V(13,0) <= 0
V(12,20) - 0F(12,1) - 0F(12,0) - 1F(12,20) - V(13,20) <= 0
V(23,1) - 1F(23,1) - 0F(23,0) - 0F(23,20) - V(24,1) <= 0
V(23,0) - 0F(23,1) - 1F(23,0) - 0F(23,20) - V(24,0) <= 0
V(23,20) - 0F(23,1) - 0F(23,0) - 1F(23,20) - V(24,20) <= 0
V(7,1) - 1F(7,1) - 0F(7,0) - 0F(7,20) - V(6,1) <= 0
V(7,0) - 0F(7,1) - 1F(7,0) - 0F(7,20) - V(6,0) <= 0
V(7,20) - 0F(7,1) - 0F(7,0) - 1F(7,20) - V(6,20) <= 0
V(13,1) - 1F(13,1) - 0F(13,0) - 0F(13,20) - V(12,1) <= 0
V(13,0) - 0F(13,1) - 1F(13,0) - 0F(13,20) - V(12,0) <= 0
V(13,20) - 0F(13,1) - 0F(13,0) - 1F(13,20) - V(12,20) <= 0
V(19,1) - 1F(19,1) - 0F(19,0) - 0F(19,20) - V(14,1) <= 0
V(19,0) - 0F(19,1) - 1F(19,0) - 0F(19,20) - V(14,0) <= 0
V(19,20) - 0F(19,1) - 0F(19,0) - 1F(19,20) - V(14,20) <= 0
V(15,1) - 1F(15,1) - 0F(15,0) - 0F(15,20) - V(16,1) <= 0
V(15,0) - 0F(15,1) - 1F(15,0) - 0F(15,20) - V(16,0) <= 0
V(15,20) - 0F(15,1) - 0F(15,0) - 1F(15,20) - V(16,20) <= 0
V(18,1) - 1F(18,1) - 0F(18,0) - 0F(18,20) - V(17,1) <= 0
V(18,0) - 0F(18,1) - 1F(18,0) - 0F(18,20) - V(17,0) <= 0
V(18,20) - 0F(18,1) - 0F(18,0) - 1F(18,20) - V(17,20) <= 0
V(18,1) - 1F(18,1) - 0F(18,0) - 0F(18,20) - V(23,1) <= 0
V(18,0) - 0F(18,1) - 1F(18,0) - 0F(18,20) - V(23,0) <= 0
V(18,20) - 0F(18,1) - 0F(18,0) - 1F(18,20) - V(23,20) <= 0
V(5,1) - 1F(5,1) - 0F(5,0) - 0F(5,20) - V(0,1) <= 0
V(5,0) - 0F(5,1) - 1F(5,0) - 0F(5,20) - V(0,0) <= 0
V(5,20) - 0F(5,1) - 0F(5,0) - 1F(5,20) - V(0,20) <= 0
V(12,1) - 1F(12,1) - 0F(12,0) - 0F(12,20) - V(17,1) <= 0
V(12,0) - 0F(12,1) - 1F(12,0) - 0F(12,20) - V(17,0) <= 0
V(12,20) - 0F(12,1) - 0F(12,0) - 1F(12,20) - V(17,20) <= 0
V(22,1) - 1F(22,1) - 0F(22,0) - 0F(22,20) - V(17,1) <= 0
V(22,0) - 0F(22,1) - 1F(22,0) - 0F(22,20) - V(17,0) <= 0
V(22,20) - 0F(22,1) - 0F(22,0) - 1F(22,20) - V(17,20) <= 0
V(22,1) - 1F(22,1) - 0F(22,0) - 0F(22,20) - V(21,1) <= 0
V(22,0) - 0F(22,1) - 1F(22,0) - 0F(22,20) - V(21,0) <= 0
V(22,20) - 0F(22,1) - 0F(22,0) - 1F(22,20) - V(21,20) <= 0
V(16,1) - 1F(16,1) - 0F(16,0) - 0F(16,20) - V(17,1) <= 0
V(16,0) - 0F(16,1) - 1F(16,0) - 0F(16,20) - V(17,0) <= 0
V(16,20) - 0F(16,1) - 0F(16,0) - 1F(16,20) - V(17,20) <= 0
V(16,1) - 1F(16,1) - 0F(16,0) - 0F(16,20) - V(11,1) <= 0
V(16,0) - 0F(16,1) - 1F(16,0) - 0F(16,20) - V(11,0) <= 0
V(16,20) - 0F(16,1) - 0F(16,0) - 1F(16,20) - V(11,20) <= 0
V(3,1) - 1F(3,1) - 0F(3,0) - 0F(3,20) - V(2,1) <= 0
V(3,0) - 0F(3,1) - 1F(3,0) - 0F(3,20) - V(2,0) <= 0
V(3,20) - 0F(3,1) - 0F(3,0) - 1F(3,20) - V(2,20) <= 0
V(21,1) - 1F(21,1) - 0F(21,0) - 0F(21,20) - V(22,1) <= 0
V(21,0) - 0F(21,1) - 1F(21,0) - 0F(21,20) - V(22,0) <= 0
V(21,20) - 0F(21,1) - 0F(21,0) - 1F(21,20) - V(22,20) <= 0
V(2,1) - 1F(2,1) - 0F(2,0) - 0F(2,20) - V(7,1) <= 0
V(2,0) - 0F(2,1) - 1F(2,0) - 0F(2,20) - V(7,0) <= 0
V(2,20) - 0F(2,1) - 0F(2,0) - 1F(2,20) - V(7,20) <= 0
V(19,1) - 1F(19,1) - 0F(19,0) - 0F(19,20) - V(18,1) <= 0
V(19,0) - 0F(19,1) - 1F(19,0) - 0F(19,20) - V(18,0) <= 0
V(19,20) - 0F(19,1) - 0F(19,0) - 1F(19,20) - V(18,20) <= 0
V(6,1) - 1F(6,1) - 0F(6,0) - 0F(6,20) - V(11,1) <= 0
V(6,0) - 0F(6,1) - 1F(6,0) - 0F(6,20) - V(11,0) <= 0
V(6,20) - 0F(6,1) - 0F(6,0) - 1F(6,20) - V(11,20) <= 0
V(12,1) - 1F(12,1) - 0F(12,0) - 0F(12,20) - V(7,1) <= 0
V(12,0) - 0F(12,1) - 1F(12,0) - 0F(12,20) - V(7,0) <= 0
V(12,20) - 0F(12,1) - 0F(12,0) - 1F(12,20) - V(7,20) <= 0
V(12,1) - 1F(12,1) - 0F(12,0) - 0F(12,20) - V(11,1) <= 0
V(12,0) - 0F(12,1) - 1F(12,0) - 0F(12,20) - V(11,0) <= 0
V(12,20) - 0F(12,1) - 0F(12,0) - 1F(12,20) - V(11,20) <= 0
V(10,1) - 1F(10,1) - 0F(10,0) - 0F(10,20) - V(5,1) <= 0
V(10,0) - 0F(10,1) - 1F(10,0) - 0F(10,20) - V(5,0) <= 0
V(10,20) - 0F(10,1) - 0F(10,0) - 1F(10,20) - V(5,20) <= 0
V(15,1) - 1F(15,1) - 0F(15,0) - 0F(15,20) - V(10,1) <= 0
V(15,0) - 0F(15,1) - 1F(15,0) - 0F(15,20) - V(10,0) <= 0
V(15,20) - 0F(15,1) - 0F(15,0) - 1F(15,20) - V(10,20) <= 0
V(19,1) - 1F(19,1) - 0F(19,0) - 0F(19,20) - V(24,1) <= 0
V(19,0) - 0F(19,1) - 1F(19,0) - 0F(19,20) - V(24,0) <= 0
V(19,20) - 0F(19,1) - 0F(19,0) - 1F(19,20) - V(24,20) <= 0
V(2,1) - 1F(2,1) - 0F(2,0) - 0F(2,20) - V(3,1) <= 0
V(2,0) - 0F(2,1) - 1F(2,0) - 0F(2,20) - V(3,0) <= 0
V(2,20) - 0F(2,1) - 0F(2,0) - 1F(2,20) - V(3,20) <= 0
V(14,1) - 1F(14,1) - 0F(14,0) - 0F(14,20) - V(13,1) <= 0
V(14,0) - 0F(14,1) - 1F(14,0) - 0F(14,20) - V(13,0) <= 0
V(14,20) - 0F(14,1) - 0F(14,0) - 1F(14,20) - V(13,20) <= 0
V(8,1) - 1F(8,1) - 0F(8,0) - 0F(8,20) - V(7,1) <= 0
V(8,0) - 0F(8,1) - 1F(8,0) - 0F(8,20) - V(7,0) <= 0
V(8,20) - 0F(8,1) - 0F(8,0) - 1F(8,20) - V(7,20) <= 0
V(4,1) - 1F(4,1) - 0F(4,0) - 0F(4,20) - V(9,1) <= 0
V(4,0) - 0F(4,1) - 1F(4,0) - 0F(4,20) - V(9,0) <= 0
V(4,20) - 0F(4,1) - 0F(4,0) - 1F(4,20) - V(9,20) <= 0
V(1,1) = 0
V(1,0) - 0F(1,1) - 1F(1,0) - 0F(1,20) - V(0,0) <= 0
V(1,20) - 0F(1,1) - 0F(1,0) - 1F(1,20) - V(0,20) <= 0
V(17,1) - 1F(17,1) - 0F(17,0) - 0F(17,20) - V(18,1) <= 0
V(17,0) - 0F(17,1) - 1F(17,0) - 0F(17,20) - V(18,0) <= 0
V(17,20) - 0F(17,1) - 0F(17,0) - 1F(17,20) - V(18,20) <= 0
V(11,1) - 1F(11,1) - 0F(11,0) - 0F(11,20) - V(12,1) <= 0
V(11,0) - 0F(11,1) - 1F(11,0) - 0F(11,20) - V(12,0) <= 0
V(11,20) - 0F(11,1) - 0F(11,0) - 1F(11,20) - V(12,20) <= 0
V(6,1) - 1F(6,1) - 0F(6,0) - 0F(6,20) - V(5,1) <= 0
V(6,0) - 0F(6,1) - 1F(6,0) - 0F(6,20) - V(5,0) <= 0
V(6,20) - 0F(6,1) - 0F(6,0) - 1F(6,20) - V(5,20) <= 0
V(14,1) - 1F(14,1) - 0F(14,0) - 0F(14,20) - V(19,1) <= 0
V(14,0) - 0F(14,1) - 1F(14,0) - 0F(14,20) - V(19,0) <= 0
V(14,20) - 0F(14,1) - 0F(14,0) - 1F(14,20) - V(19,20) <= 0
V(0,1) - 1F(0,1) - 0F(0,0) - 0F(0,20) - V(1,1) <= 0
V(0,0) = 0
V(0,20) - 0F(0,1) - 0F(0,0) - 1F(0,20) - V(1,20) <= 0
V(10,1) - 1F(10,1) - 0F(10,0) - 0F(10,20) - V(15,1) <= 0
V(10,0) - 0F(10,1) - 1F(10,0) - 0F(10,20) - V(15,0) <= 0
V(10,20) - 0F(10,1) - 0F(10,0) - 1F(10,20) - V(15,20) <= 0
V(8,1) - 1F(8,1) - 0F(8,0) - 0F(8,20) - V(3,1) <= 0
V(8,0) - 0F(8,1) - 1F(8,0) - 0F(8,20) - V(3,0) <= 0
V(8,20) - 0F(8,1) - 0F(8,0) - 1F(8,20) - V(3,20) <= 0
V(0,1) - 1F(0,1) - 0F(0,0) - 0F(0,20) - V(5,1) <= 0
V(0,0) = 0
V(0,20) - 0F(0,1) - 0F(0,0) - 1F(0,20) - V(5,20) <= 0
V(8,1) - 1F(8,1) - 0F(8,0) - 0F(8,20) - V(13,1) <= 0
V(8,0) - 0F(8,1) - 1F(8,0) - 0F(8,20) - V(13,0) <= 0
V(8,20) - 0F(8,1) - 0F(8,0) - 1F(8,20) - V(13,20) <= 0
V(13,1) - 1F(13,1) - 0F(13,0) - 0F(13,20) - V(14,1) <= 0
V(13,0) - 0F(13,1) - 1F(13,0) - 0F(13,20) - V(14,0) <= 0
V(13,20) - 0F(13,1) - 0F(13,0) - 1F(13,20) - V(14,20) <= 0
V(3,1) - 1F(3,1) - 0F(3,0) - 0F(3,20) - V(4,1) <= 0
V(3,0) - 0F(3,1) - 1F(3,0) - 0F(3,20) - V(4,0) <= 0
V(3,20) - 0F(3,1) - 0F(3,0) - 1F(3,20) - V(4,20) <= 0
V(6,1) - 1F(6,1) - 0F(6,0) - 0F(6,20) - V(1,1) <= 0
V(6,0) - 0F(6,1) - 1F(6,0) - 0F(6,20) - V(1,0) <= 0
V(6,20) - 0F(6,1) - 0F(6,0) - 1F(6,20) - V(1,20) <= 0
V(1,1) = 0
V(1,0) - 0F(1,1) - 1F(1,0) - 0F(1,20) - V(6,0) <= 0
V(1,20) - 0F(1,1) - 0F(1,0) - 1F(1,20) - V(6,20) <= 0
V(3,1) - 1F(3,1) - 0F(3,0) - 0F(3,20) - V(8,1) <= 0
V(3,0) - 0F(3,1) - 1F(3,0) - 0F(3,20) - V(8,0) <= 0
V(3,20) - 0F(3,1) - 0F(3,0) - 1F(3,20) - V(8,20) <= 0
V(20,1) - 1F(20,1) - 0F(20,0) - 0F(20,20) - V(21,1) <= 0
V(20,0) - 0F(20,1) - 1F(20,0) - 0F(20,20) - V(21,0) <= 0
V(20,20) = 0
V(15,1) - 1F(15,1) - 0F(15,0) - 0F(15,20) - V(20,1) <= 0
V(15,0) - 0F(15,1) - 1F(15,0) - 0F(15,20) - V(20,0) <= 0
V(15,20) - 0F(15,1) - 0F(15,0) - 1F(15,20) - V(20,20) <= 0
V(13,1) - 1F(13,1) - 0F(13,0) - 0F(13,20) - V(18,1) <= 0
V(13,0) - 0F(13,1) - 1F(13,0) - 0F(13,20) - V(18,0) <= 0
V(13,20) - 0F(13,1) - 0F(13,0) - 1F(13,20) - V(18,20) <= 0
V(23,1) - 1F(23,1) - 0F(23,0) - 0F(23,20) - V(18,1) <= 0
V(23,0) - 0F(23,1) - 1F(23,0) - 0F(23,20) - V(18,0) <= 0
V(23,20) - 0F(23,1) - 0F(23,0) - 1F(23,20) - V(18,20) <= 0
V(17,1) - 1F(17,1) - 0F(17,0) - 0F(17,20) - V(12,1) <= 0
V(17,0) - 0F(17,1) - 1F(17,0) - 0F(17,20) - V(12,0) <= 0
V(17,20) - 0F(17,1) - 0F(17,0) - 1F(17,20) - V(12,20) <= 0
V(16,1) - 1F(16,1) - 0F(16,0) - 0F(16,20) - V(15,1) <= 0
V(16,0) - 0F(16,1) - 1F(16,0) - 0F(16,20) - V(15,0) <= 0
V(16,20) - 0F(16,1) - 0F(16,0) - 1F(16,20) - V(15,20) <= 0
V(4,1) - 1F(4,1) - 0F(4,0) - 0F(4,20) - V(3,1) <= 0
V(4,0) - 0F(4,1) - 1F(4,0) - 0F(4,20) - V(3,0) <= 0
V(4,20) - 0F(4,1) - 0F(4,0) - 1F(4,20) - V(3,20) <= 0
V(20,1) - 1F(20,1) - 0F(20,0) - 0F(20,20) - V(15,1) <= 0
V(20,0) - 0F(20,1) - 1F(20,0) - 0F(20,20) - V(15,0) <= 0
V(20,20) = 0
V(7,1) - 1F(7,1) - 0F(7,0) - 0F(7,20) - V(8,1) <= 0
V(7,0) - 0F(7,1) - 1F(7,0) - 0F(7,20) - V(8,0) <= 0
V(7,20) - 0F(7,1) - 0F(7,0) - 1F(7,20) - V(8,20) <= 0
V(11,1) - 1F(11,1) - 0F(11,0) - 0F(11,20) - V(6,1) <= 0
V(11,0) - 0F(11,1) - 1F(11,0) - 0F(11,20) - V(6,0) <= 0
V(11,20) - 0F(11,1) - 0F(11,0) - 1F(11,20) - V(6,20) <= 0
F(0,1) + F(0,0) + F(0,20) = 1 
F(1,1) + F(1,0) + F(1,20) = 1 
F(2,1) + F(2,0) + F(2,20) = 1 
F(3,1) + F(3,0) + F(3,20) = 1 
F(4,1) + F(4,0) + F(4,20) = 1 
F(5,1) + F(5,0) + F(5,20) = 1 
F(6,1) + F(6,0) + F(6,20) = 1 
F(7,1) + F(7,0) + F(7,20) = 1 
F(8,1) + F(8,0) + F(8,20) = 1 
F(9,1) + F(9,0) + F(9,20) = 1 
F(10,1) + F(10,0) + F(10,20) = 1 
F(11,1) + F(11,0) + F(11,20) = 1 
F(12,1) + F(12,0) + F(12,20) = 1 
F(13,1) + F(13,0) + F(13,20) = 1 
F(14,1) + F(14,0) + F(14,20) = 1 
F(15,1) + F(15,0) + F(15,20) = 1 
F(16,1) + F(16,0) + F(16,20) = 1 
F(17,1) + F(17,0) + F(17,20) = 1 
F(18,1) + F(18,0) + F(18,20) = 1 
F(19,1) + F(19,0) + F(19,20) = 1 
F(20,1) + F(20,0) + F(20,20) = 1 
F(21,1) + F(21,0) + F(21,20) = 1 
F(22,1) + F(22,0) + F(22,20) = 1 
F(23,1) + F(23,0) + F(23,20) = 1 
F(24,1) + F(24,0) + F(24,20) = 1 
bounds
V(22,0)  free 
V(19,20)  free 
V(2,20)  free 
F(7,20)  >= 0
V(8,1)  free 
V(7,0)  free 
F(20,20)  >= 0
V(8,20)  free 
V(11,20)  free 
V(0,20)  free 
V(9,20)  free 
F(7,0)  >= 0
V(14,1)  free 
V(6,1)  free 
V(1,20)  free 
V(5,1)  free 
F(0,20)  >= 0
V(7,20)  free 
V(21,0)  free 
V(18,1)  free 
V(15,1)  free 
V(22,1)  free 
F(5,1)  >= 0
V(5,20)  free 
V(10,20)  free 
F(22,0)  >= 0
V(16,20)  free 
V(14,0)  free 
V(5,0)  free 
V(23,1)  free 
F(9,1)  >= 0
V(18,0)  free 
F(5,0)  >= 0
V(16,1)  free 
F(20,0)  >= 0
V(17,20)  free 
V(17,0)  free 
V(2,0)  free 
F(9,0)  >= 0
V(23,0)  free 
V(18,20)  free 
V(12,20)  free 
F(0,0)  >= 0
F(15,20)  >= 0
V(9,1)  free 
V(0,1)  free 
F(13,0)  >= 0
F(11,20)  >= 0
F(13,20)  >= 0
V(16,0)  free 
F(17,0)  >= 0
F(20,1)  >= 0
F(19,0)  >= 0
V(3,20)  free 
F(21,1)  >= 0
F(6,20)  >= 0
F(24,0)  >= 0
F(19,20)  >= 0
F(0,1)  >= 0
F(22,20)  >= 0
V(13,0)  free 
V(13,20)  free 
F(21,20)  >= 0
F(13,1)  >= 0
F(22,1)  >= 0
F(14,1)  >= 0
V(4,20)  free 
F(17,1)  >= 0
F(19,1)  >= 0
V(9,0)  free 
F(23,1)  >= 0
F(8,0)  >= 0
F(21,0)  >= 0
F(18,1)  >= 0
F(15,0)  >= 0
V(10,0)  free 
F(24,1)  >= 0
V(13,1)  free 
F(12,1)  >= 0
F(10,20)  >= 0
V(4,0)  free 
F(12,20)  >= 0
F(4,0)  >= 0
F(14,0)  >= 0
F(11,0)  >= 0
V(0,0)  free 
F(10,0)  >= 0
V(24,0)  free 
V(20,20)  free 
F(18,0)  >= 0
F(1,1)  >= 0
F(16,1)  >= 0
V(2,1)  free 
F(12,0)  >= 0
V(4,1)  free 
F(8,1)  >= 0
F(23,0)  >= 0
V(23,20)  free 
F(15,1)  >= 0
F(2,0)  >= 0
F(4,1)  >= 0
F(16,20)  >= 0
V(20,0)  free 
F(9,20)  >= 0
F(23,20)  >= 0
F(11,1)  >= 0
V(1,1)  free 
V(24,1)  free 
F(3,20)  >= 0
F(1,0)  >= 0
V(12,1)  free 
F(16,0)  >= 0
F(5,20)  >= 0
F(17,20)  >= 0
V(3,0)  free 
V(15,20)  free 
F(18,20)  >= 0
F(2,1)  >= 0
V(11,0)  free 
V(17,1)  free 
V(20,1)  free 
V(19,0)  free 
F(3,1)  >= 0
V(3,1)  free 
V(1,0)  free 
F(24,20)  >= 0
F(6,0)  >= 0
V(6,20)  free 
V(12,0)  free 
F(4,20)  >= 0
V(14,20)  free 
V(21,20)  free 
V(7,1)  free 
F(1,20)  >= 0
F(14,20)  >= 0
F(7,1)  >= 0
V(11,1)  free 
F(8,20)  >= 0
V(24,20)  free 
V(22,20)  free 
V(6,0)  free 
F(3,0)  >= 0
V(19,1)  free 
V(10,1)  free 
V(8,0)  free 
F(10,1)  >= 0
V(21,1)  free 
F(6,1)  >= 0
F(2,20)  >= 0
V(15,0)  free 
